\* Problem: myProblem *\

Maximize
 z: + 10 x1 + 7 x2

Subject To
 c1: + 8 x2 + 9 x1 <= 100
 c2: + x2 + x1 <= 10

Bounds
 0 <= x1 <= 1.79769313486232e+308
 0 <= x2 <= 1.79769313486232e+308

End
